154 73 59 183 198 47 70 164 39 23 173 110 114 175 56 
155 55 150 135 64 18 14 112 99 62 85 33 188 72 107 
45 20 48 185 176 158 195 117 130 147 167 190 141 
157 4 153 151 134 66 156 126 81 105 108 
132 28 36 34 104 136 138 88 121 139 97 174 
87 32 83 194 162 171 142 159 19 82 191 41 7 
93 199 137 68 131 5 25 79 91 60 98 53 
46 71 94 125 178 100 200 160 
145 146 122 16 21 182 27 49 50 123 197 
120 26 17 38 6 189 127 58 96 43 193 
44 51 86 69 13 192 133 75 
184 15 129 65 90 128 84 118 179 180 80 
140 30 54 1 124 61 148 113 161 
196 57 35 31 109 116 102 10 22 
8 115 2 76 152 29 24 168 103 149 
63 67 166 12 89 37 186 144 52 77 
106 143 187 165 11 9 74 119 
3 170 111 42 
92 163 95 101 40 
181 169 78 
177 
172 

